x_1
x_2
x_3
x_4
x_5
x_6
x_7
x_8
x_9
x_10
x_11
x_12
x_13
x_14
x_15
x_16
x_17
x_18
x_19
x_20
x_2 x_1
x_4 x_1
x_4 x_2
x_4 x_3
x_5 x_3
x_6 x_1
x_6 x_2
x_6 x_5
x_7 x_4
x_7 x_6
x_8 x_4
x_8 x_7
x_9 x_1
x_9 x_2
x_9 x_4
x_10 x_2
x_10 x_3
x_10 x_6
x_11 x_1
x_11 x_2
x_11 x_4
x_11 x_5
x_11 x_8
x_11 x_9
x_12 x_3
x_12 x_4
x_12 x_5
x_12 x_6
x_13 x_4
x_13 x_6
x_14 x_2
x_14 x_3
x_14 x_4
x_14 x_5
x_14 x_7
x_14 x_8
x_14 x_9
x_14 x_10
x_14 x_11
x_15 x_1
x_15 x_5
x_15 x_6
x_15 x_7
x_15 x_9
x_15 x_11
x_16 x_1
x_16 x_2
x_16 x_4
x_16 x_6
x_16 x_8
x_16 x_9
x_16 x_10
x_16 x_11
x_16 x_12
x_16 x_14
x_17 x_1
x_17 x_4
x_17 x_5
x_17 x_6
x_17 x_7
x_17 x_9
x_17 x_13
x_17 x_14
x_17 x_16
x_18 x_1
x_18 x_2
x_18 x_3
x_18 x_4
x_18 x_6
x_18 x_7
x_18 x_8
x_18 x_10
x_18 x_11
x_18 x_12
x_18 x_16
x_19 x_3
x_19 x_5
x_19 x_7
x_19 x_9
x_19 x_11
x_19 x_12
x_19 x_14
x_19 x_16
x_19 x_17
x_19 x_18
x_20 x_1
x_20 x_3
x_20 x_4
x_20 x_7
x_20 x_10
x_20 x_11
x_20 x_12
x_20 x_15
x_20 x_17
x_20 x_18
